
 102   30
  10   10   10   10   10   10   10   10   10   10   10   10   10   10   10   10   10   10   10   10   10   10   10   10   10   10   10   10   10   10

   0   0   0   0   0   0   0   0   0   0   0   0   0   0   0   0   0   0   0   0   0   0   0   0   0   0   0   0   0   0   0  26 2 3 4 5 6 7 9 11 12 13 14 15 16 17 20 21 22 25 26 27 29 31 32 34 42 49 
   2   0   0   0   0   0   0   0   3   0   0   0   0   0   0   0   0   0   0   2   0   0   0   0   0   0   0   0   0   0   0   7 63 51 37 36 24 10 8 
   3   0   0   0   0   0   1   0   0   1   2   0   0   0   0   0   1   0   0   8   0   0   0   0   0   0   0   0   1   0   0  14 101 73 65 63 61 59 58 45 43 41 39 38 30 19 
   6   0   0   0   0   0   0   0   0   0   0   0   0   0   0   0   0   0   3   0   0   0   0   0   0   0   0   0   6   0   0  17 74 72 67 66 65 63 61 60 58 48 45 43 41 36 33 30 18 
   5   4   0   0   3   0   0   0   0   0   3   0   0   0   2   0   0   0   0   0   0   1   0   0   1   0   0   1   7   1   0  15 72 65 62 61 57 56 54 53 51 50 47 40 38 35 23 
   8   0   0   1   0   0   0   0   0   0   0   0   0   1   0   0   0   0   3   0   0   0   1   0   0   0   0   0   8   0   3  20 101 100 99 95 93 92 74 67 66 65 62 61 59 58 57 52 48 43 38 37 
  10   0   0   0   0   0   0   0   0   0   0   0   0   0   0   0   0   0   0   0   0   0   0   0   0   0   0   0   0   0   0  15 101 98 92 72 65 63 60 58 57 55 54 50 45 43 30 
   9   0   0   0   2   0   0   0   7   0   0   0   0   9   0   0   7   0   0   0   0   0   0   0   7   0   0   0   0   0   0  18 101 100 72 70 66 65 64 61 60 59 57 53 52 47 46 45 44 43 
   6   0   0   0   0   0   0   0   0   0   0   0   0   0   0   0   0   0   0   0   0   0   0   0   0   0   0   0   0   0   6  13 101 98 97 72 64 63 60 59 58 57 43 41 30 
   6   0   0   6   0   0   0   0   0   4   0   0   0   9   0   0   0   4   0   0   0   0   0   0   0   0   0   0   0  10   2   9 100 73 60 58 46 43 41 33 18 
   6   0   0   5   0   0   0   0   0   0   0   0   0   0   0   0   0   0   0   0   0   0   7   0   0   0   0   0   0   0   0  12 99 88 86 74 73 70 67 66 62 60 56 28 
   1   0   0   0   0   0  10   0   0   0   0   0   0   0   0   1   0   0   0   0   0   0   0   0   0   0   0   0   0   0   0  17 101 96 95 93 88 86 73 72 69 62 59 58 55 51 50 47 38 
   4   0   0   0   0   0   5   0   0   0   0   0   3   0   0   0   0   2   0   0   0   7   0   0   0   0   0   0   5   0   0  10 101 100 87 86 72 63 53 47 38 36 
   9   0   0  10  10   0   0   0   0   0   0   0   0   4   0   0   0   0   0   0   0   0   7   0   8   1   0   0   0   0   0  14 100 99 95 93 92 72 71 66 63 62 57 52 50 43 
   5   0   0   0   0   0   0   0   0   0   0   0   0   0   5   0   0   0   0   0   0   0   4   0   0   0   0   8   0   0   0  14 100 98 95 92 85 71 70 65 64 60 55 52 44 43 
   1   0   0   0   0   0   0   0   0   0   0   0   0   0   0   0   0   0   0   0   0   0   0   0   0   0   0   0   5   0   0  13 93 92 89 86 85 72 69 63 61 59 50 39 38 
   4   0   0   0   0   1   0   0   0   0   0   0   0  10   0   0   0   0   0   0   0   0   0   0   0   0   0   0   0   0   0  15 99 98 93 92 91 86 74 73 63 61 60 58 57 50 45 
   2   0   0   0   0   0   0   0   0   0   0   0   4   0   0   0   0   0   0   0   1   0   0   0   0   0   0   0   0   0   0  14 101 99 97 96 95 94 92 88 87 86 69 57 50 44 
   5   4   0   0   0   9   0   0   0   0   0   0   0   0   0   3   0   0   0   0   0   0   0   0   0   0   0   0   0   0   0  10 99 87 86 74 72 67 66 64 60 36 
   5   0   1   0   0   0   4   0   8   0   0   1   0   0   8   0   0   0   0   6   0   0   0   0   2   0   0   0   0   0   0  17 98 97 96 95 90 88 87 86 84 82 71 70 69 64 63 57 44 
   3   0   0   0   0   0   5   0   0   0   0   0   0   0   0   0   0   0   0   0   0   0   0   0   0   7   0   0   0   0   0  16 100 99 97 95 93 92 91 90 84 72 70 64 62 61 58 43 
   3   0   0   0   0   0   0   0   0   0   0   0   0   0   0   7   0   0   0   8   0   0   9   0   0   0   0   0   0   0   0  16 95 93 92 91 89 88 86 70 69 66 64 63 62 60 57 55 
   1   4   0   0   0   0   0   0   0   0   0   0   0   0   0   0   0   0   0   4   0   0   0   0   0   0   0   0   0   0   0  11 98 97 91 89 81 71 63 60 58 55 41 
   7   0   9   5   0   0   0   0   0   0   0   6   0   0   0   0   0   0   7   0   0   0   0   0   0   0   1   0   0   0   0  21 100 99 97 96 95 94 93 86 85 84 83 82 81 73 71 69 68 67 65 64 60 
  10   0   5   0   0   5   0   0   0   9   9   0   0   0   0   0   0   0   0   0   0   0   0   0   0   5   2   0   0   0   0  20 98 95 94 93 92 91 89 88 87 86 84 83 82 80 69 67 65 64 62 57 
   5   0   0   6   0   0   0   0   0   0   0   0   5   0   5   0   0   0   0   0   0   7   0   1   0   5   0   0   0   0   0  10 99 93 89 85 69 67 64 62 55 38 
   6  10   0   0   0   0   0   0   0   0   0   0   0   4   0   0   0   0   0   0   8   0   0   0   0   0   6   0   0   0   0  15 100 97 95 92 90 88 86 84 83 82 72 66 60 57 44 
   4   0   0   0   0   0   0   4   0   0   0   0   0   0   0   0   0   0   0   0   0   0   0   0   7   0   0   0   6   4   0  13 101 97 95 93 89 87 84 83 72 68 58 52 48 
   2   0   0   0   0   0   0   0   0   0   0   0   0   0   0   0   0   0   0   0   0   0   8   0   0   0   0   0   7   6   0  13 100 99 96 91 90 89 85 84 81 71 62 61 41 
   6   0   3   0   0   8   6   0   0   7   0   9   0   0   0   0   0   0   0   5   3   4   0   5   0   6   0   0   0   0   0  12 100 99 95 90 88 87 86 84 71 70 52 44 
   4   6   0   0   0   0   0   0   0   8   5   0   0   0   0   0   0   0   0   0   0   0   5   0   0   0   6   0   0   5   0  20 99 98 96 95 94 93 92 90 89 86 85 84 81 80 72 70 69 66 65 62 
   7   0   0   0   4   0   0   0   0   0   0   0   0   0   0   0   0   0   0   0   0   0   0   0   0   0   0   0   0   0   0  20 101 100 96 93 92 91 90 88 87 86 85 84 83 82 81 71 69 64 62 59 
   2   0   0   0   6   5   0   0   0   0   0   0  10   5   0   0   0   0   0   0   0   0   0   0   0   0   0   0   5   0  10  12 99 98 97 88 87 86 84 82 71 69 57 44 
   5   0   0   0   0   0   0   0   0   0   0   0   0   0   3   7   0   5   0   4   6   0   0   0   0   0   0   0   3   0   0  11 101 99 94 88 87 86 81 80 62 58 50 
   2   0   0   0   0  10   0   0   0   0   0   0   0   0   0   0   0   0   0   0   0   0   0   0   0   0   0   5   0   0   4  17 100 98 97 96 92 91 89 88 87 84 82 81 78 71 70 68 60 
   7   0   0   0   0   0   0   0   0   0   7   7   0   0   0   0   0   0   0   0   0   0   0   8   0   0   0   0   0   0   0  13 98 96 94 92 88 84 82 80 79 70 69 62 57 
   3   5   0   0   5   0   0   0   2   0   0   9   0   5   0   0   0   0   0   8   0   0   7   0   0   0   0   6   5   0   0  13 96 94 85 84 82 81 80 79 78 77 72 70 69 
   3   0   0   0   2   0   0   0   5   0   0   0   0   0   0   0   0   0   0   0   0   7   0   0   0   0   0   0   0   0   7  10 98 97 91 84 83 81 78 71 68 60 
   4   0   0   0   0   0   0   0   0   0   0   9  10   0   0   0   0   0   6   0   0   0   0   4   0   0   0   0   0   0   0  10 97 91 90 88 87 84 83 78 62 60 
   1   8   0   0   0   0   0   0   0   0   0   0   0   7   0   8   0   0   0   0   0   0   0   0   0   0   0   0   0   0   0  13 100 99 89 88 85 84 83 81 79 78 77 76 73 
  10   0   0   0   9   0   0   0   0   0   0   0   0   0   0   0   8   0   6   0   0   0   0   0   0   0   0   0   0   0   0  11 93 92 88 86 82 79 78 77 70 69 68 
   8   8   0   0   0   0   0   0   0   0   0   0   0   0   0   0   0   0   0   0   0   0   0   0   0   0   7   0   0   0   0   9 100 94 90 86 85 78 75 65 62 
   2   0   0   0   0   0   0   0   0   0   0   0   0   0   0   0   0   0   0   0   0   0   0   6   0   0   5   0   0   0   0  11 89 88 87 86 83 82 81 79 78 77 68 
   7   0   8   0   0   0   0   0   0   6   4   0   0   5   0   7   0   0   0   0   0   0   0   0   0   0   0   0   0   0   7   8 93 91 89 81 80 79 78 62 
   3   0   0   0   0   0   0   0   0   0   5   0   0   0   0   0   0   0   0   0   0   7   0   0   0   0   0   0   0   0   0   8 95 89 81 78 77 75 71 68 
  10   0   0   0   0   0   6   0   0   0   0   0   0   0   0   0   0   0   0   0   0   0   0   5   0   0   0   7   0   0   8   9 97 95 94 86 83 81 80 78 77 
   2   0   0   0   4   0   0   0   0   0   0   0   3   0   0   0   0   0   0   0   0   0   0   0   7   0   0   0   0   0   0   8 97 92 90 82 79 78 75 68 
   4   0   0   0   0   0   0   0   0   6   6   0   4   0   0   0   0   0   0   0   0   0   5   0   0   0   0   0   0   0   0   8 98 91 82 81 80 78 75 71 
   2   0   0   0   0   0   0   0   5   0   0   0   0   0   3   0   0   0   7   0   0   0   0   0   0   0   0   0   0   0   0   8 89 86 85 82 79 78 72 68 
   3   0   0   0   0   0   0   0   0   0   0   0   0   0   0   0   0   0   6   0   0   0   0   0   0   7   0   0   0   0   0   6 90 84 82 77 70 64 
   1   4   0   0   0   0   0   0   0   0   9   0   0   0   8   0   0   0   0   0   0   0   0   0   0   6   8   0   0   0   0   8 92 89 82 81 80 78 76 75 
   9   0   0   0   0   0   0   0   0   9   0   0   0   6   0   0   0   0   0   3   0   0   0   0   9   0   9   0   0   7   0   7 96 94 81 80 79 76 69 
   2   0   0   0   0   0   0   0   0   0   0   0   0   0   0   0   0   0   0   0   0   0   0   0   0  10   0   0   5   0   0   7 99 90 88 83 80 76 75 
   8   0   0   0   0   0   4   0   0   0   0   0   0   0   0   8   0   0   0   0   0   0   0   0   0   0   0   0   0   0   0   6 95 85 82 77 76 69 
   4   0   7   0   0   0   0   0   0   0   0   0   8   0  10   0   0   0   0   0   0   0   0   0   0   0   0   0   0   3  10   6 94 87 84 82 80 79 
   9   0   5   0   0   0   0   0   0   0   0   0   4   0   0   0   0   0   0   0   0   0   0   0   0   0   9   0   0   0   0   6 92 85 84 78 77 75 
   7   0   0   0   0   0   9   0  10   0   0   0   0   0   0   0   0   8  10   0   0   0   0   0   0   0   0   0   0   0   0   4 85 81 77 75 
   9   0   0   0   0   0   0   0   0   0   0   0   0   0   0   0   0   0   0   0   0   0   4   0   0   0   0   0   0   0   0   4 85 82 79 77 
   8   5   0   0   0   0   0   6   0   0   4   0   8   0   0   0   0   0   0   0   0   0   0   0   0   0   8   0   0   0   0   4 79 77 76 75 
   1   0   0   8   0   0   0   0   0   0   0   5   0   0   0   0   0  10   0   0   0   0   0   6   0   0   0   0   0   0   0   3 80 77 75 
   3   0   8   9   0   0   0   0   0   0   6   0   0   0   0   0   0   0   0   6   0   0   8   0   0   0   6   0   0   0   0   3 80 77 75 
   2   6   0   0   0   5   0   8   0   4   0   0   0   0   0   0   0   0   0   7   0   0   0   0   0   3   0   0   0   0   0   2 77 68 
   1   0   0   0   0   0   0   0   0   0   0   0   0   0   0   0   0   0   0   0   0   0   0   0   0   0   0   0   0   0   0   2 80 68 
   4   0   0   0   9   0  10   0   0   0   0   0   0   0   5   6   7   0   0   0   0   0   0   0   5   0   0   0   0   0   0   2 78 75 
   7   0   0   0   0   0   6   0   0   0   0   0   0   0   0   5   0   0   0   6   0   7   0   0   0   0   0   0   0   0   0   2 79 76 
   8   0   0   0   0   4   0   0   0   0   0   0   0   0   0   0   7   0   0   0   5   0   0   6   0   0   0   0   0   0   0   2 78 75 
   2   0   0   0   0   0   0   3   0   5   0   0   0   0   0   0   8   0   0   0   0   0   0   0   0   0   0   0   0   0   4   2 90 75 
   4   0   0   0   0   6   0   0   0   0   0   0   0   0   0   0   0   0   0   0   0   0   0   0   0   0   0   0   8   0   0   1 76 
   8   5   0   0   0   0   0   0   0   0   0   0   0   0   0   0   6   5   4   0   7   0   0   0   0   0   0   0   0   0   0   1 75 
   3   0   0   0   0   0   0   0   0   0   0   3   0   0   0   0   0   0   0   0   0   0   0   0   0   0   0   0   5   0   0   1 83 
   4   0   8   0   0   0   0   0  10   0   0   0   0   0   0   0   0   0   7   0   0   0   0   0   0   0   0   0   0   0   0   1 79 
   2   0   6   3   0   0   0  10   6   5   0   0   6   9   4   0   0   0   0   4   0   0   0   0   0   0   0   0   0   0   0   1 76 
   8   0   0   0   0   0   0   0   0   0   0   0   0   0   0   0   0  10   0   0   0   0   0   0   0   0   0   0   7   0   0   1 87 
   6   0   0   0   0   0   0   0   0   0   0   0   9   0   6   0   0   0   0   0   0   0  10   0   0   0   0   0   0   0   0   1 77 
   6   0   0   0   0   0   0   0   0   0   0   0   0   0   0   8   0   4   0   0   0   4   0   0   0  10   0   0   0   6   0   1 102
   2   0   0   0   0   6   3   8   0   7   0   0   0   0   0   0   0   0   0   0   0   0   0   0   0   0   0   0   8   0   0   1 102
   7   0   0   0   0   0   0   5   0   4  10   0   0   0   0   6   0   0   0   0   0   0   0  10   9   0   5   0   0   0   0   1 102
   6   0   0   0   0   0   0   0   4   6   0   0   0   0   0   0   0   0   0   0   0   0   0   0   0   0   0   0   0   0   0   1 102
   1   0   0   0   0   0   0   5   0   0   9   0   0   0   0   0   0   2   0   6   0   0   0   0   0   0   0   0   0   6   0   1 102
   6   0   0   0   0   0   0   0   0   0   0   0   0   0   0   0   0   0   0   0   0   0   5   0   0   0   0   0   0   0   0   1 102
   6   0   0   0   5   0  10   0   0   0   0   0   0   0   0   0   4   0   0   0   0   0   0   0   0   0   0   0   0   0   0   1 102
   3   0   0   0   0   0   0   0   0   0   0   0   0   0   0   0   0   0   0   0   0   0   0   5   0   0   0   0   0   0   5   1 102
   5   0   0   0   0   0   0   0   0   0   0   0   0   0   0   0   0   0   0   0   0   0   6   0   0   0   9   0   0   0   0   1 102
   7   0   0   0   0   0   0   0   5   0   0   0   0   0   0   4   7   0   0   0   0   0   4   0   0   0   0   4   0   0   0   1 102
  10   0   0   0   0   0   0   0   5   0   0   0   5   0   0   0   0   0   0   0   9   0   0   0   0   0   0   0   0   0   0   1 102
   2   0   0   6   0   0   0   8   0   9   0   0   0   0   0   2   0   0   0   0   9   6   0  10   0   0   0   9   0   8   0   1 102
   2   0   0   7  10   7   0   4   0   0   0   0   0   0   0   0   0   0   0   0   0   5   0   0   0   0   0   8   0   0   0   1 102
   9   0   0   0   9   0   0   0   0   9   5   0   0   0   0   0   0  10   0   0   0   0   0   0   0   0   0   0   0   9   0   1 102
   5   0   0   0   0   0   0   0   0   3   0   0   0   0   0   8   0   0   0   0   0   0   0   0   0   0   0   0   0   8   0   1 102
   3   0   0   0   0   0   4   0   0   0   0   0   0   0   0   0   0   0   0   0   0   5   0   0   0   0   0   0   9   0   9   1 102
   3  10   6   0   0   0   0   0   0   0   0   0   0   0   0  10   4   0   0   0   0   0   0   0   7   0   0   4   0   7   0   1 102
   5   0   0   0   0   0   0   0   8   0   0   3   0   0   0   0   0   0   0   9   0   6   0   0   0   0   0   0   0   2   3   1 102
   9   0   0   0   0   0   0   0   0   0   0   0   0   0   0   0   0   6   0   0   0   0   0   0   0   0   0   0   0   0   0   1 102
   5   0   0   0   0   0   0   0   0   0   0   0   5   0   0   0   7   0   0   0   0   0   6   0   0   0   5   0   0   0   0   1 102
   9   0   0   0   0   0   0   5   0   0   0   0   0   0   0   0   0   0   0   0   0   0   0   0   0   0   0   0   0   0   0   1 102
   9   0   0   0   0   0   0   0   9   0   0   0   0   0   0   0   0   0   0   0   0  10   0   0   0   0   0   0   8   0   0   1 102
   6   0   0   0   0   0   0   0   0   0   0   0   0   0   8   0   0   0   0   0   0   8   0   0   0   0   4   0   0   0   0   1 102
   2   5   0   0   0   6   0   0   3   0   0   0   0   0  10   0   0   0   0   0   0   0   0   0   0   0   0   8   0   0   0   1 102
   6   0   0   0   0   0   7   0   0   0   0   8   0   4   0   0   0   0   0   0   0   0   0   0   0   0   0   0   0   0   0   1 102
   5   0   0   0   0   0   0   0   0   0   6   0   0   0   7   0   0   0   0  10   0   0   0   0   0   0   0   0   0   8   0   1 102
   6   0   0   0   0   0   0   0   0   0   0   0   0   0   0   0   0   0   7   0   0   0   0   0   4   0   0   0   0   0   0   1 102
   0   0   0   0   0   0   0   0   0   0   0   0   0   0   0   0   0   0   0   0   0   0   0   0   0   0   0   0   0   0   0   0 
